NAME: instance_3072
TYPE: TSP
DIMENSION: 20
EDGE_WEIGHT_TYPE: EUC_2D
NODE_COORD_SECTION
0 88.18 25.76
1 66.71 82.20
2 76.54 80.91
3 54.07 78.86
4 71.51 25.70
5 7.37 76.81
6 70.31 1.09
7 27.40 81.63
8 85.28 96.03
9 56.02 74.56
10 84.47 85.57
11 2.16 14.65
12 24.50 43.64
13 60.15 20.19
14 64.82 79.01
15 84.06 86.89
16 53.36 32.39
17 7.82 9.11
18 37.35 99.32
19 1.15 78.15
EOF
